c Sudoku solution
p cnf 729 0
135 0
214 0
226 0
252 0
261 0
346 0
372 0
431 0
456 0
529 0
543 0
565 0
584 0
685 0
762 0
783 0
797 0
833 0
874 0
882 0
898 0
918 0
924 0
932 0
634 0
959 0
963 0
866 0
819 0
827 0
736 0
779 0
947 0
995 0
275 0
293 0
355 0
153 0
754 0
748 0
845 0
851 0
641 0
442 0
464 0
669 0
144 0
394 0
249 0
339 0
499 0
189 0
986 0
971 0
591 0
692 0
512 0
616 0
576 0
122 0
196 0
381 0
111 0
715 0
721 0
425 0
167 0
368 0
178 0
287 0
238 0
317 0
323 0
413 0
628 0
537 0
673 0
558 0
657 0
477 0
488 0
